
  22   10
  10   10   10   10   10   10   10   10   10   10

   0   0   0   0   0   0   0   0   0   0   0   3 2 3 4 
   8   0   0   0   0   0  10   0   0   0   0   2 6 5 
   3   0   0  10   0   0   0   0   0   0   0   2 6 5 
   9   0   0   0   0   0   0  10   0   0   0   2 6 5 
   2   0   0   0   0   0  10   0   0   0   0   2 8 7 
   6   0   0   0   0   0   0  10   0   0   0   1 7 
   6   0   0   0   0   0   0   0   0  10   0   2 10 9 
   6   0   0  10   0   0   0   0   0   0   0   1 9 
   9   0   0   0   0   0   0   0  10   0   0   2 12 11 
   3   0   0  10   0   0   0   0   0   0   0   1 11 
   5   0   0   0   0   0  10   0   0   0   0   2 14 13 
   4   0   0   0   0   0   0   0  10   0   0   2 15 14 
   8   0  10   0   0   0   0   0   0   0   0   2 17 15 
   2   0   0  10   0   0   0   0   0   0   0   2 21 17 
   8   0   0   0   0  10   0   0   0   0   0   1 16 
   4  10   0   0   0   0   0   0   0   0   0   3 21 20 18 
   8   0   0   0   0  10   0   0   0   0   0   2 20 18 
  10   0   0   0   0   0   0  10   0   0   0   1 19 
   3   0   0   0   0   0   0  10   0   0   0   1 22
  10  10   0   0   0   0   0   0   0   0   0   1 22
   3   0   0   0   0   0  10   0   0   0   0   1 22
   0   0   0   0   0   0   0   0   0   0   0   0 
